
Gurobi 9.0.3 (win64) logging started Sat Feb  5 17:52:41 2022

Changed value of parameter LogFile to logs\CRVRP_5-2-7-100_3_3.LOG
   Prev: logs\CRVRP_5-2-7-100_3_2.LOG  Default: 
Changed value of parameter Seed to 1389255652
   Prev: 622175886  Min: 0  Max: 2000000000  Default: 0
Parameter Threads unchanged
   Value: 2  Min: 0  Max: 1024  Default: 0
Parameter TimeLimit unchanged
   Value: 60.0  Min: 0.0  Max: inf  Default: inf
Parameter Symmetry unchanged
   Value: 2  Min: -1  Max: 2  Default: -1
Parameter Cuts unchanged
   Value: 2  Min: -1  Max: 3  Default: -1
Parameter PreDepRow unchanged
   Value: 1  Min: -1  Max: 1  Default: -1
Parameter ScaleFlag unchanged
   Value: 1  Min: -1  Max: 3  Default: -1
Parameter NormAdjust unchanged
   Value: 0  Min: -1  Max: 3  Default: -1
Gurobi Optimizer version 9.0.3 build v9.0.3rc0 (win64)
Optimize a model with 1001 rows, 810 columns and 4006 nonzeros
Model fingerprint: 0x0eed8711
Variable types: 32 continuous, 778 integer (522 binary)
Coefficient statistics:
  Matrix range     [1e+00, 1e+06]
  Objective range  [1e+00, 1e+00]
  Bounds range     [1e+00, 1e+04]
  RHS range        [1e+00, 1e+06]
Presolve removed 617 rows and 515 columns
Presolve time: 0.02s
Presolved: 384 rows, 295 columns, 2048 nonzeros
Variable types: 15 continuous, 280 integer (230 binary)
Found heuristic solution: objective 1870.3317726

Root relaxation: objective 4.231442e+02, 222 iterations, 0.00 seconds

    Nodes    |    Current Node    |     Objective Bounds      |     Work
 Expl Unexpl |  Obj  Depth IntInf | Incumbent    BestBd   Gap | It/Node Time

     0     0  423.14425    0   31 1870.33177  423.14425  77.4%     -    0s
H    0     0                    1008.2864186  423.14425  58.0%     -    0s
     0     0  423.14425    0   28 1008.28642  423.14425  58.0%     -    0s
H    0     0                     746.3569976  423.14425  43.3%     -    0s
     0     0  423.14425    0   38  746.35700  423.14425  43.3%     -    0s
     0     0  423.14425    0   34  746.35700  423.14425  43.3%     -    0s
     0     0  423.14425    0   31  746.35700  423.14425  43.3%     -    0s
     0     0  423.14425    0   21  746.35700  423.14425  43.3%     -    0s
     0     0  423.14425    0   18  746.35700  423.14425  43.3%     -    0s
     0     0  423.14425    0   29  746.35700  423.14425  43.3%     -    0s
     0     0  423.14425    0   12  746.35700  423.14425  43.3%     -    0s
H    0     0                     715.2580390  423.14425  40.8%     -    0s
H    0     0                     625.0643031  423.14425  32.3%     -    0s
H    0     0                     556.7002189  423.14425  24.0%     -    0s
H    0     0                     556.7002189  423.14425  24.0%     -    0s
H    0     2                     530.6397899  423.14425  20.3%     -    0s
     0     2  423.14425    0   12  530.63979  423.14425  20.3%     -    0s
*   78    73              34     527.8431965  423.14425  19.8%  30.9    0s
*  104    73              21     514.3281879  423.14425  17.7%  30.0    0s
H  131   107                     514.0647333  423.14425  17.7%  30.7    0s
*  157   107              17     441.3571560  423.14425  4.13%  28.6    0s
*  333    96              12     435.8482335  423.14425  2.91%  23.7    0s

Cutting planes:
  Learned: 2
  Cover: 7
  Implied bound: 29
  Projected implied bound: 1
  Clique: 1
  MIR: 33
  StrongCG: 4
  Flow cover: 92
  Inf proof: 5
  Zero half: 4
  RLT: 70
  Relax-and-lift: 24

Explored 582 nodes (15452 simplex iterations) in 0.94 seconds
Thread count was 2 (of 8 available processors)

Solution count 10: 435.848 441.357 514.065 ... 746.357

Optimal solution found (tolerance 1.00e-04)
Best objective 4.358482335467e+02, best bound 4.358482335467e+02, gap 0.0000%
Discarded solution information
